n_machines = 2;
n_resources = 4;
n_jobs = 40;
horizon = 18522;
LB = 9261;
n_jobs_per_resource = [10, 10, 10, 10];
duration = [531, 903, 119, 683, 917, 457, 857, 845, 177, 556, 371, 558, 86, 606, 417, 999, 65, 689, 828, 260, 682, 314, 541, 228, 245, 344, 196, 561, 240, 809, 357, 138, 463, 128, 792, 65, 450, 267, 404, 374]